! bohrs mp2 EXTREMESCF nofrozencore nopop noprintmos cc-pvdz
* xyz 0 1
Be  0  0  0
*
