!hf EXTREMESCF nofrozencore largeprint 3-21G

*xyz 0 3
 c    0.0  0.0  0.0
*
