! bohrs hf EXTREMESCF nofrozencore sto-3g nopop noprintmos

* xyz 0 1
O   0  0  0
H   0  0  1.795239827225189
H   1.693194615993441  0  -0.599043184453037
*
