! bohrs hf EXTREMESCF nofrozencore nopop noprintmos aug-cc-pvdz
* xyz 0 1
He  0  0  0
*
