! bohrs extremescf nofrozencore nopop noprintmos largeprint hf 3-21g
* xyz 0 3
C  0  0  0
*
