! bohrs extremescf nofrozencore nopop noprintmos largeprint hf aug-cc-pvdz
* xyz 0 1
He  0  0  0
*
