! bohrs extremescf nofrozencore nopop noprintmos largeprint fci aug-cc-pvdz
* xyz 0 1
He  0  0  0
*
