! bohrs extremescf nofrozencore nopop noprintmos largeprint hf 3-21g
* xyz 0 1
Be  0  0  0
*
