! bohrs extremescf nofrozencore nopop noprintmos largeprint mp2 cc-pvdz
* xyz 0 1
Be  0  0  0
*
