! bohrs extremescf nofrozencore nopop noprintmos largeprint hf 3-21g
* xyz 0 1
C  0.11773122601810967  2.7065791525700348e-07  -0.36282169701109324
C  0.85168487104133117  -3.5297816510288056e-07  2.4207360703520151
H  2.9018095114074667  -2.3439803917193614e-06  2.656181084227907
H  0.11360588178037678  -1.6647921043201028  3.3913802657097327
H  0.1136091723264787  1.6647931911034923  3.3913797397970602
H  -1.9323875392990797  3.8543685706956529e-06  -0.59830784202161946
H  0.8558352286352563  1.6647907143679499  -1.3334507521041237
H  0.85582967489644457  -1.664793229221158  -1.3334498295870683
*
